# Solution for model count
# Objective value = 10
z#1 0
z#2 1
z#3 0
z#4 0
z#5 1
z#6 1
z#7 0
z#8 1
z#9 0
z#10 1
z#11 1
z#12 0
z#13 0
z#14 0
z#15 1
z#16 0
z#17 0
z#18 0
z#19 0
z#20 1
z#21 1
z#22 1
z#23 0
z#24 0
x#24 0
x#23 0
x#22 1467
x#21 386
x#20 358
x#19 0
x#18 0
x#17 0
x#16 0
x#15 199
x#14 0
x#13 0
x#12 0
x#11 3670
x#10 120
x#9 0
x#8 810
x#7 0
x#6 451
x#5 790
x#4 0
x#3 0
x#2 1749
x#1 0
